nK = 1402;
nT = 6;
nI = 14;
L = 35;
TT = 377;
np = 1;
nc = 3;
b = [32, 43, 33, 57, 57, 50, 47, 30, 23, 47, 54, 35, 59, 43];
d = [124, 72, 99, 122, 102, 140, 149, 46, 50, 129, 102, 97, 138, 132];
m = [2.4, 1.5, 2.5, 1.6, 1.3, 1.5, 1.2, 1.3, 1.5, 1.5, 2.2, 1.9, 2, 1.2];
pt = [0.26, 0.32, 0.34, 0.31, 0.3, 0.32];
st = [12.48, 19.2, 16.66, 17.05, 13.8, 16.96];
arc = {<1, 0, 1, 1, 0, 0, 0, [1, 1, 1, 1, 1, 1]>, <2, 1, 2, 1, 0, 0, 0, [1, 1, 1, 1, 1, 1]>, <3, 2, 3, 1, 0, 0, 0, [1, 1, 1, 1, 1, 1]>, <4, 3, 4, 1, 0, 0, 0, [1, 1, 1, 1, 1, 1]>, <5, 4, 5, 1, 0, 0, 0, [1, 1, 1, 1, 1, 1]>, <6, 5, 6, 1, 0, 0, 0, [1, 1, 1, 1, 1, 1]>, <7, 6, 7, 1, 0, 0, 0, [1, 1, 1, 1, 1, 1]>, <8, 7, 8, 1, 0, 0, 0, [1, 1, 1, 1, 1, 1]>, <9, 8, 9, 1, 0, 0, 0, [1, 1, 1, 1, 1, 1]>, <10, 9, 10, 1, 0, 0, 0, [1, 1, 1, 1, 1, 1]>, <11, 10, 11, 1, 0, 0, 0, [1, 1, 1, 1, 1, 1]>, <12, 11, 12, 1, 0, 0, 0, [1, 1, 1, 1, 1, 1]>, <13, 12, 13, 1, 0, 0, 0, [1, 1, 1, 1, 1, 1]>, <14, 13, 14, 1, 0, 0, 0, [1, 1, 1, 1, 1, 1]>, <15, 14, 15, 1, 0, 0, 0, [1, 1, 1, 1, 1, 1]>, <16, 15, 16, 1, 0, 0, 0, [1, 1, 1, 1, 1, 1]>, <17, 16, 17, 1, 0, 0, 0, [1, 1, 1, 1, 1, 1]>, <18, 17, 18, 1, 0, 0, 0, [1, 1, 1, 1, 1, 1]>, <19, 18, 19, 1, 0, 0, 0, [1, 1, 1, 1, 1, 1]>, <20, 19, 20, 1, 0, 0, 0, [1, 1, 1, 1, 1, 1]>, <21, 20, 21, 1, 0, 0, 0, [1, 1, 1, 1, 1, 1]>, <22, 21, 22, 1, 0, 0, 0, [1, 1, 1, 1, 1, 1]>, <23, 22, 23, 1, 0, 0, 0, [1, 1, 1, 1, 1, 1]>, <24, 23, 24, 1, 0, 0, 0, [1, 1, 1, 1, 1, 1]>, <25, 24, 25, 1, 0, 0, 0, [1, 1, 1, 1, 1, 1]>, <26, 25, 26, 1, 0, 0, 0, [1, 1, 1, 1, 1, 1]>, <27, 26, 27, 1, 0, 0, 0, [1, 1, 1, 1, 1, 1]>, <28, 27, 28, 1, 0, 0, 0, [1, 1, 1, 1, 1, 1]>, <29, 28, 29, 1, 0, 0, 0, [1, 1, 1, 1, 1, 1]>, <30, 29, 30, 1, 0, 0, 0, [1, 1, 1, 1, 1, 1]>, <31, 30, 31, 1, 0, 0, 0, [1, 1, 1, 1, 1, 1]>, <32, 31, 32, 1, 0, 0, 0, [1, 1, 1, 1, 1, 1]>, <33, 32, 33, 1, 0, 0, 0, [1, 1, 1, 1, 1, 1]>, <34, 33, 34, 1, 0, 0, 0, [1, 1, 1, 1, 1, 1]>, <35, 34, 35, 1, 0, 0, 0, [1, 1, 1, 1, 1, 1]>, <36, 0, 17, 17, 1, 0, 1, [0, 0, 1, 1, 1, 1]>, <37, 1, 18, 17, 1, 0, 1, [0, 0, 1, 1, 1, 1]>, <38, 2, 19, 17, 1, 0, 1, [0, 0, 1, 1, 1, 1]>, <39, 3, 20, 17, 1, 0, 1, [0, 0, 1, 1, 1, 1]>, <40, 4, 21, 17, 1, 0, 1, [0, 0, 1, 1, 1, 1]>, <41, 5, 22, 17, 1, 0, 1, [0, 0, 1, 1, 1, 1]>, <42, 6, 23, 17, 1, 0, 1, [0, 0, 1, 1, 1, 1]>, <43, 9, 26, 17, 1, 0, 1, [0, 0, 1, 1, 1, 1]>, <44, 10, 27, 17, 1, 0, 1, [0, 0, 1, 1, 1, 1]>, <45, 11, 28, 17, 1, 0, 1, [0, 0, 1, 1, 1, 1]>, <46, 12, 29, 17, 1, 0, 1, [0, 0, 1, 1, 1, 1]>, <47, 13, 30, 17, 1, 0, 1, [0, 0, 1, 1, 1, 1]>, <48, 14, 31, 17, 1, 0, 1, [0, 0, 1, 1, 1, 1]>, <49, 15, 32, 17, 1, 0, 1, [0, 0, 1, 1, 1, 1]>, <50, 16, 33, 17, 1, 0, 1, [0, 0, 1, 1, 1, 1]>, <51, 17, 34, 17, 1, 0, 1, [0, 0, 1, 1, 1, 1]>, <52, 18, 35, 17, 1, 0, 1, [0, 0, 1, 1, 1, 1]>, <53, 0, 17, 17, 2, 0, 0, [0, 1, 1, 1, 1, 0]>, <54, 1, 18, 17, 2, 0, 0, [0, 1, 1, 1, 1, 0]>, <55, 2, 19, 17, 2, 0, 0, [0, 1, 1, 1, 1, 0]>, <56, 3, 20, 17, 2, 0, 0, [0, 1, 1, 1, 1, 0]>, <57, 4, 21, 17, 2, 0, 0, [0, 1, 1, 1, 1, 0]>, <58, 5, 22, 17, 2, 0, 0, [0, 1, 1, 1, 1, 0]>, <59, 6, 23, 17, 2, 0, 0, [0, 1, 1, 1, 1, 0]>, <60, 9, 26, 17, 2, 0, 0, [0, 1, 1, 1, 1, 0]>, <61, 10, 27, 17, 2, 0, 0, [0, 1, 1, 1, 1, 0]>, <62, 11, 28, 17, 2, 0, 0, [0, 1, 1, 1, 1, 0]>, <63, 12, 29, 17, 2, 0, 0, [0, 1, 1, 1, 1, 0]>, <64, 13, 30, 17, 2, 0, 0, [0, 1, 1, 1, 1, 0]>, <65, 14, 31, 17, 2, 0, 0, [0, 1, 1, 1, 1, 0]>, <66, 15, 32, 17, 2, 0, 0, [0, 1, 1, 1, 1, 0]>, <67, 16, 33, 17, 2, 0, 0, [0, 1, 1, 1, 1, 0]>, <68, 17, 34, 17, 2, 0, 0, [0, 1, 1, 1, 1, 0]>, <69, 18, 35, 17, 2, 0, 0, [0, 1, 1, 1, 1, 0]>, <70, 3, 17, 14, 3, 0, 1, [0, 0, 1, 1, 1, 1]>, <71, 4, 18, 14, 3, 0, 1, [0, 0, 1, 1, 1, 1]>, <72, 5, 19, 14, 3, 0, 1, [0, 0, 1, 1, 1, 1]>, <73, 6, 20, 14, 3, 0, 1, [0, 0, 1, 1, 1, 1]>, <74, 12, 26, 14, 3, 0, 1, [0, 0, 1, 1, 1, 1]>, <75, 13, 27, 14, 3, 0, 1, [0, 0, 1, 1, 1, 1]>, <76, 14, 28, 14, 3, 0, 1, [0, 0, 1, 1, 1, 1]>, <77, 15, 29, 14, 3, 0, 1, [0, 0, 1, 1, 1, 1]>, <78, 17, 31, 14, 3, 0, 1, [0, 0, 1, 1, 1, 1]>, <79, 18, 32, 14, 3, 0, 1, [0, 0, 1, 1, 1, 1]>, <80, 19, 33, 14, 3, 0, 1, [0, 0, 1, 1, 1, 1]>, <81, 20, 34, 14, 3, 0, 1, [0, 0, 1, 1, 1, 1]>, <82, 21, 35, 14, 3, 0, 1, [0, 0, 1, 1, 1, 1]>, <83, 0, 19, 19, 4, 0, 0, [0, 0, 1, 1, 1, 1]>, <84, 1, 20, 19, 4, 0, 0, [0, 0, 1, 1, 1, 1]>, <85, 2, 21, 19, 4, 0, 0, [0, 0, 1, 1, 1, 1]>, <86, 3, 22, 19, 4, 0, 0, [0, 0, 1, 1, 1, 1]>, <87, 4, 23, 19, 4, 0, 0, [0, 0, 1, 1, 1, 1]>, <88, 5, 24, 19, 4, 0, 0, [0, 0, 1, 1, 1, 1]>, <89, 6, 25, 19, 4, 0, 0, [0, 0, 1, 1, 1, 1]>, <90, 7, 26, 19, 4, 0, 0, [0, 0, 1, 1, 1, 1]>, <91, 8, 27, 19, 4, 0, 0, [0, 0, 1, 1, 1, 1]>, <92, 9, 28, 19, 4, 0, 0, [0, 0, 1, 1, 1, 1]>, <93, 10, 29, 19, 4, 0, 0, [0, 0, 1, 1, 1, 1]>, <94, 11, 30, 19, 4, 0, 0, [0, 0, 1, 1, 1, 1]>, <95, 12, 31, 19, 4, 0, 0, [0, 0, 1, 1, 1, 1]>, <96, 13, 32, 19, 4, 0, 0, [0, 0, 1, 1, 1, 1]>, <97, 14, 33, 19, 4, 0, 0, [0, 0, 1, 1, 1, 1]>, <98, 15, 34, 19, 4, 0, 0, [0, 0, 1, 1, 1, 1]>, <99, 16, 35, 19, 4, 0, 0, [0, 0, 1, 1, 1, 1]>, <100, 2, 17, 15, 5, 0, 0, [1, 0, 0, 1, 1, 1]>, <101, 3, 18, 15, 5, 0, 0, [1, 0, 0, 1, 1, 1]>, <102, 4, 19, 15, 5, 0, 0, [1, 0, 0, 1, 1, 1]>, <103, 5, 20, 15, 5, 0, 0, [1, 0, 0, 1, 1, 1]>, <104, 6, 21, 15, 5, 0, 0, [1, 0, 0, 1, 1, 1]>, <105, 11, 26, 15, 5, 0, 0, [1, 0, 0, 1, 1, 1]>, <106, 12, 27, 15, 5, 0, 0, [1, 0, 0, 1, 1, 1]>, <107, 13, 28, 15, 5, 0, 0, [1, 0, 0, 1, 1, 1]>, <108, 14, 29, 15, 5, 0, 0, [1, 0, 0, 1, 1, 1]>, <109, 15, 30, 15, 5, 0, 0, [1, 0, 0, 1, 1, 1]>, <110, 16, 31, 15, 5, 0, 0, [1, 0, 0, 1, 1, 1]>, <111, 17, 32, 15, 5, 0, 0, [1, 0, 0, 1, 1, 1]>, <112, 18, 33, 15, 5, 0, 0, [1, 0, 0, 1, 1, 1]>, <113, 19, 34, 15, 5, 0, 0, [1, 0, 0, 1, 1, 1]>, <114, 20, 35, 15, 5, 0, 0, [1, 0, 0, 1, 1, 1]>, <115, 0, 17, 17, 6, 0, 0, [1, 1, 0, 0, 1, 1]>, <116, 1, 18, 17, 6, 0, 0, [1, 1, 0, 0, 1, 1]>, <117, 2, 19, 17, 6, 0, 0, [1, 1, 0, 0, 1, 1]>, <118, 3, 20, 17, 6, 0, 0, [1, 1, 0, 0, 1, 1]>, <119, 4, 21, 17, 6, 0, 0, [1, 1, 0, 0, 1, 1]>, <120, 5, 22, 17, 6, 0, 0, [1, 1, 0, 0, 1, 1]>, <121, 6, 23, 17, 6, 0, 0, [1, 1, 0, 0, 1, 1]>, <122, 9, 26, 17, 6, 0, 0, [1, 1, 0, 0, 1, 1]>, <123, 10, 27, 17, 6, 0, 0, [1, 1, 0, 0, 1, 1]>, <124, 11, 28, 17, 6, 0, 0, [1, 1, 0, 0, 1, 1]>, <125, 12, 29, 17, 6, 0, 0, [1, 1, 0, 0, 1, 1]>, <126, 13, 30, 17, 6, 0, 0, [1, 1, 0, 0, 1, 1]>, <127, 14, 31, 17, 6, 0, 0, [1, 1, 0, 0, 1, 1]>, <128, 15, 32, 17, 6, 0, 0, [1, 1, 0, 0, 1, 1]>, <129, 16, 33, 17, 6, 0, 0, [1, 1, 0, 0, 1, 1]>, <130, 17, 34, 17, 6, 0, 0, [1, 1, 0, 0, 1, 1]>, <131, 18, 35, 17, 6, 0, 0, [1, 1, 0, 0, 1, 1]>, <132, 0, 17, 17, 7, 0, 1, [0, 1, 1, 1, 1, 0]>, <133, 1, 18, 17, 7, 0, 1, [0, 1, 1, 1, 1, 0]>, <134, 2, 19, 17, 7, 0, 1, [0, 1, 1, 1, 1, 0]>, <135, 3, 20, 17, 7, 0, 1, [0, 1, 1, 1, 1, 0]>, <136, 4, 21, 17, 7, 0, 1, [0, 1, 1, 1, 1, 0]>, <137, 5, 22, 17, 7, 0, 1, [0, 1, 1, 1, 1, 0]>, <138, 6, 23, 17, 7, 0, 1, [0, 1, 1, 1, 1, 0]>, <139, 9, 26, 17, 7, 0, 1, [0, 1, 1, 1, 1, 0]>, <140, 10, 27, 17, 7, 0, 1, [0, 1, 1, 1, 1, 0]>, <141, 11, 28, 17, 7, 0, 1, [0, 1, 1, 1, 1, 0]>, <142, 12, 29, 17, 7, 0, 1, [0, 1, 1, 1, 1, 0]>, <143, 13, 30, 17, 7, 0, 1, [0, 1, 1, 1, 1, 0]>, <144, 14, 31, 17, 7, 0, 1, [0, 1, 1, 1, 1, 0]>, <145, 15, 32, 17, 7, 0, 1, [0, 1, 1, 1, 1, 0]>, <146, 16, 33, 17, 7, 0, 1, [0, 1, 1, 1, 1, 0]>, <147, 17, 34, 17, 7, 0, 1, [0, 1, 1, 1, 1, 0]>, <148, 18, 35, 17, 7, 0, 1, [0, 1, 1, 1, 1, 0]>, <149, 0, 17, 17, 8, 0, 1, [1, 0, 0, 1, 1, 1]>, <150, 1, 18, 17, 8, 0, 1, [1, 0, 0, 1, 1, 1]>, <151, 2, 19, 17, 8, 0, 1, [1, 0, 0, 1, 1, 1]>, <152, 3, 20, 17, 8, 0, 1, [1, 0, 0, 1, 1, 1]>, <153, 4, 21, 17, 8, 0, 1, [1, 0, 0, 1, 1, 1]>, <154, 5, 22, 17, 8, 0, 1, [1, 0, 0, 1, 1, 1]>, <155, 6, 23, 17, 8, 0, 1, [1, 0, 0, 1, 1, 1]>, <156, 9, 26, 17, 8, 0, 1, [1, 0, 0, 1, 1, 1]>, <157, 10, 27, 17, 8, 0, 1, [1, 0, 0, 1, 1, 1]>, <158, 11, 28, 17, 8, 0, 1, [1, 0, 0, 1, 1, 1]>, <159, 12, 29, 17, 8, 0, 1, [1, 0, 0, 1, 1, 1]>, <160, 13, 30, 17, 8, 0, 1, [1, 0, 0, 1, 1, 1]>, <161, 14, 31, 17, 8, 0, 1, [1, 0, 0, 1, 1, 1]>, <162, 15, 32, 17, 8, 0, 1, [1, 0, 0, 1, 1, 1]>, <163, 16, 33, 17, 8, 0, 1, [1, 0, 0, 1, 1, 1]>, <164, 17, 34, 17, 8, 0, 1, [1, 0, 0, 1, 1, 1]>, <165, 18, 35, 17, 8, 0, 1, [1, 0, 0, 1, 1, 1]>, <166, 0, 18, 18, 9, 0, 1, [1, 1, 1, 0, 0, 1]>, <167, 1, 19, 18, 9, 0, 1, [1, 1, 1, 0, 0, 1]>, <168, 2, 20, 18, 9, 0, 1, [1, 1, 1, 0, 0, 1]>, <169, 3, 21, 18, 9, 0, 1, [1, 1, 1, 0, 0, 1]>, <170, 4, 22, 18, 9, 0, 1, [1, 1, 1, 0, 0, 1]>, <171, 5, 23, 18, 9, 0, 1, [1, 1, 1, 0, 0, 1]>, <172, 6, 24, 18, 9, 0, 1, [1, 1, 1, 0, 0, 1]>, <173, 8, 26, 18, 9, 0, 1, [1, 1, 1, 0, 0, 1]>, <174, 9, 27, 18, 9, 0, 1, [1, 1, 1, 0, 0, 1]>, <175, 10, 28, 18, 9, 0, 1, [1, 1, 1, 0, 0, 1]>, <176, 11, 29, 18, 9, 0, 1, [1, 1, 1, 0, 0, 1]>, <177, 12, 30, 18, 9, 0, 1, [1, 1, 1, 0, 0, 1]>, <178, 13, 31, 18, 9, 0, 1, [1, 1, 1, 0, 0, 1]>, <179, 14, 32, 18, 9, 0, 1, [1, 1, 1, 0, 0, 1]>, <180, 15, 33, 18, 9, 0, 1, [1, 1, 1, 0, 0, 1]>, <181, 16, 34, 18, 9, 0, 1, [1, 1, 1, 0, 0, 1]>, <182, 17, 35, 18, 9, 0, 1, [1, 1, 1, 0, 0, 1]>, <183, 2, 17, 15, 10, 0, 0, [0, 0, 1, 1, 1, 1]>, <184, 3, 18, 15, 10, 0, 0, [0, 0, 1, 1, 1, 1]>, <185, 4, 19, 15, 10, 0, 0, [0, 0, 1, 1, 1, 1]>, <186, 5, 20, 15, 10, 0, 0, [0, 0, 1, 1, 1, 1]>, <187, 6, 21, 15, 10, 0, 0, [0, 0, 1, 1, 1, 1]>, <188, 11, 26, 15, 10, 0, 0, [0, 0, 1, 1, 1, 1]>, <189, 12, 27, 15, 10, 0, 0, [0, 0, 1, 1, 1, 1]>, <190, 13, 28, 15, 10, 0, 0, [0, 0, 1, 1, 1, 1]>, <191, 14, 29, 15, 10, 0, 0, [0, 0, 1, 1, 1, 1]>, <192, 15, 30, 15, 10, 0, 0, [0, 0, 1, 1, 1, 1]>, <193, 16, 31, 15, 10, 0, 0, [0, 0, 1, 1, 1, 1]>, <194, 17, 32, 15, 10, 0, 0, [0, 0, 1, 1, 1, 1]>, <195, 18, 33, 15, 10, 0, 0, [0, 0, 1, 1, 1, 1]>, <196, 19, 34, 15, 10, 0, 0, [0, 0, 1, 1, 1, 1]>, <197, 20, 35, 15, 10, 0, 0, [0, 0, 1, 1, 1, 1]>, <198, 3, 17, 14, 11, 0, 1, [1, 0, 0, 1, 1, 1]>, <199, 4, 18, 14, 11, 0, 1, [1, 0, 0, 1, 1, 1]>, <200, 5, 19, 14, 11, 0, 1, [1, 0, 0, 1, 1, 1]>, <201, 6, 20, 14, 11, 0, 1, [1, 0, 0, 1, 1, 1]>, <202, 12, 26, 14, 11, 0, 1, [1, 0, 0, 1, 1, 1]>, <203, 13, 27, 14, 11, 0, 1, [1, 0, 0, 1, 1, 1]>, <204, 14, 28, 14, 11, 0, 1, [1, 0, 0, 1, 1, 1]>, <205, 15, 29, 14, 11, 0, 1, [1, 0, 0, 1, 1, 1]>, <206, 17, 31, 14, 11, 0, 1, [1, 0, 0, 1, 1, 1]>, <207, 18, 32, 14, 11, 0, 1, [1, 0, 0, 1, 1, 1]>, <208, 19, 33, 14, 11, 0, 1, [1, 0, 0, 1, 1, 1]>, <209, 20, 34, 14, 11, 0, 1, [1, 0, 0, 1, 1, 1]>, <210, 21, 35, 14, 11, 0, 1, [1, 0, 0, 1, 1, 1]>, <211, 3, 17, 14, 12, 0, 1, [1, 0, 0, 1, 1, 1]>, <212, 4, 18, 14, 12, 0, 1, [1, 0, 0, 1, 1, 1]>, <213, 5, 19, 14, 12, 0, 1, [1, 0, 0, 1, 1, 1]>, <214, 6, 20, 14, 12, 0, 1, [1, 0, 0, 1, 1, 1]>, <215, 12, 26, 14, 12, 0, 1, [1, 0, 0, 1, 1, 1]>, <216, 13, 27, 14, 12, 0, 1, [1, 0, 0, 1, 1, 1]>, <217, 14, 28, 14, 12, 0, 1, [1, 0, 0, 1, 1, 1]>, <218, 15, 29, 14, 12, 0, 1, [1, 0, 0, 1, 1, 1]>, <219, 17, 31, 14, 12, 0, 1, [1, 0, 0, 1, 1, 1]>, <220, 18, 32, 14, 12, 0, 1, [1, 0, 0, 1, 1, 1]>, <221, 19, 33, 14, 12, 0, 1, [1, 0, 0, 1, 1, 1]>, <222, 20, 34, 14, 12, 0, 1, [1, 0, 0, 1, 1, 1]>, <223, 21, 35, 14, 12, 0, 1, [1, 0, 0, 1, 1, 1]>, <224, 4, 17, 13, 13, 0, 0, [1, 1, 1, 0, 0, 1]>, <225, 5, 18, 13, 13, 0, 0, [1, 1, 1, 0, 0, 1]>, <226, 6, 19, 13, 13, 0, 0, [1, 1, 1, 0, 0, 1]>, <227, 13, 26, 13, 13, 0, 0, [1, 1, 1, 0, 0, 1]>, <228, 14, 27, 13, 13, 0, 0, [1, 1, 1, 0, 0, 1]>, <229, 15, 28, 13, 13, 0, 0, [1, 1, 1, 0, 0, 1]>, <230, 18, 31, 13, 13, 0, 0, [1, 1, 1, 0, 0, 1]>, <231, 19, 32, 13, 13, 0, 0, [1, 1, 1, 0, 0, 1]>, <232, 20, 33, 13, 13, 0, 0, [1, 1, 1, 0, 0, 1]>, <233, 21, 34, 13, 13, 0, 0, [1, 1, 1, 0, 0, 1]>, <234, 22, 35, 13, 13, 0, 0, [1, 1, 1, 0, 0, 1]>, <235, 0, 18, 18, 14, 0, 0, [1, 0, 0, 1, 1, 1]>, <236, 1, 19, 18, 14, 0, 0, [1, 0, 0, 1, 1, 1]>, <237, 2, 20, 18, 14, 0, 0, [1, 0, 0, 1, 1, 1]>, <238, 3, 21, 18, 14, 0, 0, [1, 0, 0, 1, 1, 1]>, <239, 4, 22, 18, 14, 0, 0, [1, 0, 0, 1, 1, 1]>, <240, 5, 23, 18, 14, 0, 0, [1, 0, 0, 1, 1, 1]>, <241, 6, 24, 18, 14, 0, 0, [1, 0, 0, 1, 1, 1]>, <242, 8, 26, 18, 14, 0, 0, [1, 0, 0, 1, 1, 1]>, <243, 9, 27, 18, 14, 0, 0, [1, 0, 0, 1, 1, 1]>, <244, 10, 28, 18, 14, 0, 0, [1, 0, 0, 1, 1, 1]>, <245, 11, 29, 18, 14, 0, 0, [1, 0, 0, 1, 1, 1]>, <246, 12, 30, 18, 14, 0, 0, [1, 0, 0, 1, 1, 1]>, <247, 13, 31, 18, 14, 0, 0, [1, 0, 0, 1, 1, 1]>, <248, 14, 32, 18, 14, 0, 0, [1, 0, 0, 1, 1, 1]>, <249, 15, 33, 18, 14, 0, 0, [1, 0, 0, 1, 1, 1]>, <250, 16, 34, 18, 14, 0, 0, [1, 0, 0, 1, 1, 1]>, <251, 17, 35, 18, 14, 0, 0, [1, 0, 0, 1, 1, 1]>};
